120
150
55
52
43
55
40
55
50
53
50
55
43
59
47
55
47
60
48
50
45
55
44
60
47
56
40
56
51
52
47
49
55
49
50
50
49
43
56
51
47
53
54
47
45
43
44
49
57
57
44
52
58
60
49
50
43
49
58
55
54
48
56
46
40
53
55
48
58
41
60
49
44
52
57
57
45
56
54
58
51
42
41
49
59
55
48
55
56
44
55
53
40
50
41
49
46
42
55
40
41
46
49
55
57
50
50
40
56
56
43
48
44
46
47
42
54
56
49
60
55
55
